0  303  530  706  892  1094  1253  1401  1595  1734  
29  303  530  706  892  1094  1315  1401  1595  1734  
0  303  530  706  892  1105  1253  1401  1595  1734  
91  393  530  706  892  1094  1265  1401  1640  1734  
0  388  530  706  961  1094  1253  1457  1662  1734  
14  381  530  742  982  1094  1253  1490  1595  1734  
172  394  569  780  901  1115  1253  1401  1667  1767  
98  431  552  767  941  1094  1274  1401  1697  1734  
72  383  630  841  892  1166  1361  1506  1601  1764  
218  517  539  706  1030  1177  1253  1499  1627  1759  
